loop__main__1416:
(set-info :source |printed by MathSAT|)
(assert true)
loop__abort__1474:
(set-info :source |printed by MathSAT|)
(assert false)
loop____assert_func__1480:
(set-info :source |printed by MathSAT|)
(assert false)
